7,6	0,0	8,3	11,6	0,0	0,0	0,0	0,0	0,0	9,9
17,9	16,2	0,0	6,0	19,7	0,0	0,0	9,7	0,0	0,0
0,0	0,0	5,9	0,0	8,4	8,0	0,0	0,0	12,7	0,0
10,1	0,0	6,7	0,0	0,0	0,0	19,7	0,0	0,0	0,0
0,0	12,6	0,0	19,3	12,4	0,0	0,0	17,1	0,0	0,0
0,0	9,5	11,2	0,0	9,5	8,2	0,0	0,0	17,0	0,0
0,0	8,2	0,0	17,0	0,0	0,0	18,7	0,0	0,0	16,5
19,2	0,0	15,4	0,0	0,0	0,0	0,0	0,0	0,0	7,4
0,0	12,5	0,0	18,0	6,1	0,0	0,0	12,8	0,0	0,0
0,0	0,0	7,2	0,0	0,0	18,0	12,5	0,0	0,0	16,5
0,0	9,8	0,0	0,0	5,7	0,0	9,2	0,0	6,8	20,0
19,3	0,0	12,7	0,0	12,1	0,0	12,8	5,4	9,8	0,0
0,0	10,8	0,0	0,0	0,0	20,0	0,0	6,5	13,4	12,4
14,3	6,6	19,8	0,0	0,0	7,6	0,0	17,7	6,3	0,0
19,5	0,0	7,0	0,0	11,4	14,7	18,2	8,1	0,0	0,0
0,0	12,3	0,0	5,6	0,0	18,2	0,0	15,8	0,0	0,0
5,5	0,0	16,5	18,6	16,4	0,0	0,0	7,4	0,0	0,0
0,0	0,0	9,2	0,0	0,0	6,8	8,8	0,0	14,9	8,9
10,1	0,0	0,0	7,2	16,1	14,9	5,4	12,0	0,0	13,9
0,0	16,0	0,0	8,3	0,0	0,0	11,9	0,0	5,4	7,0
									
3,3	3,8	2,6	4,3	4,5	3,1	3,8	3,9	3,8	3,6
